# Node Net
1560   1
 40   1
480   1
2460   2
3548   2
2040   2
3570   3
3121   3
3541   4
3579   4
3582   5
241   5
3060   6
3420   6
2700   7
1621   7
1381   8
3553   8
601   9
2580   9
 26  10
121  10
 57  11
 50  11
3421  12
 49  12
